3 16 1 10
5 8 17 17 17 15 7 13 6 5 9 9 11 13 2 16 
6.7 6.35 4.28 3.05 6.2 3.26 1.85 0.85 7.72 3.51 6.01 6.83 2.74 7.76 7.59 5.76 
4 4 4 4 4 4 4 4 4 4 4 4 4 4 4 4 
5.6 3.28 6.72 1.11 0.36 0.18 0.45 1.78 5.94 2.85 2.44 6.26 4.13 3.6 1.25 3.82 
1 1 1 1 1 1 1 1 1 1 1 1 1 1 1 1 
1 1 1 1 1 1 1 1 1 1 1 1 1 1 1 1 
1 1 1 1 1 1 1 1 1 1 1 1 1 1 1 1 
0.01 0.01 0.01 0.01 0.01 0.01 0.01 0.01 0.01 0.01 0.01 0.01 0.01 0.01 0.01 0.01 
0.02 0.02 0.02 0.02 0.02 0.02 0.02 0.02 0.02 0.02 0.02 0.02 0.02 0.02 0.02 0.02 
1 1 1 1 1 1 1 1 1 1 1 1 1 1 1 1 
